Route #1: 21 22 14 8 9 10 15 1 11 2 3 16 4 18 17 30 31 41 42 32 25 12 13 5 6 19 26 20 7 27 36 43 49 55 65 54 53 52 58 48 47 40 39 29 24 35 28 23 34 38 45 37 33 44 50 56 66 71 83 99 100 84 78 94 88 95 89 85 73 74 75 79 86 90 96 97 98 91 92 87 93 82 77 76 70 69 81 80 64 68 63 51 62 57 46 61 72 60 67 59
Cost 48284
